20	5
0	5	4	1	5	2	3
1	2	8	6
2	1	6
3	2	13	7
4	1	14
5	2	6	11
6	1	10
7	1	9
8	1	15
9	1	21
10	1	16
11	3	12	7	19
12	2	13	17
13	1	14
14	1	19
15	1	18
16	1	21
17	1	21
18	1	21
19	1	21
20	2	21	9
21	0
0	0	0	0	0	0	0
1	10	1	1	3	0	3
2	5	0	0	0	5	0
3	6	1	0	0	1	3
4	10	0	0	4	0	3
5	10	0	0	0	3	0
6	2	0	1	3	0	0
7	8	0	0	3	0	0
8	1	4	0	4	1	0
9	3	0	5	0	1	5
10	3	4	5	0	0	1
11	8	4	4	4	4	2
12	1	0	2	4	0	2
13	2	1	0	1	5	4
14	4	0	0	0	0	1
15	2	3	0	5	0	4
16	4	4	2	0	5	0
17	9	2	0	0	0	3
18	1	0	0	5	0	5
19	5	4	0	4	0	5
20	3	0	0	0	2	0
21	0	0	0	0	0	0
7	5	11	7	10
